(declare-const p19_8 Real)
(declare-const p21_8 Real)
(declare-const p14_5 Real)
(declare-const p8_7 Real)
(declare-const income Real)
(declare-const sin Real)
(declare-const p17_8 Real)
(declare-const p15_8 Real)
(declare-const p21_3 Real)
(declare-const p20_8 Real)
(declare-const special Real)
(declare-const fee_bl Real)
(assert (= p8_7 (* 0.087 (ite (> income 44192) 44192 income))))
(assert (= p14_5 (ite (> income 44192) (* 0.145 (- (ite (> income 88382) 88382 income) 44192)) 0)))
(assert (= p15_8 (ite (> income 88382) (* 0.158 (- (ite (> income 157792) 157792 income) 88382)) 0)))
(assert (= p17_8 (ite (> income 157792) (* 0.178 (- (ite (> income 220910) 220910 income) 157792)) 0)))
(assert (= p19_8 (ite (> income 220910) (* 0.198 (- (ite (> income 282214) 282214 income) 220910)) 0)))
(assert (= p20_8 (ite (> income 282214) (* 0.208 (- (ite (> income 564429) 564429 income) 282214)) 0)))
(assert (= p21_3 (ite (> income 564429) (* 0.213 (- (ite (> income 1128858) 1128858 income) 564429)) 0)))
(assert (= p21_8 (ite (> income 1128858) (* 0.218 (- income 1128858)) 0)))
(assert (= special (ite (>= sin 900000000) 0 1)))
(assert (= fee_bl (* special (+ (+ (+ (+ (+ (+ (+ p8_7 p14_5) p15_8) p17_8) p19_8) p20_8) p21_3) p21_8))))